id: 1766
name: sgpf5y6
group: mittelmann/misc
method: 1

Gurobi 7.0.2 (linux64, Matlab) logging started Sun Apr 22 15:04:47 2018


Gurobi 7.0.2 (linux64) logging started Sun Apr 22 15:04:47 2018

Optimize a model with 246077 rows, 308634 columns and 828070 nonzeros
Coefficient statistics:
  Matrix range     [1e+00, 1e+00]
  Objective range  [2e-09, 2e-02]
  Bounds range     [8e+04, 4e+05]
  RHS range        [4e+02, 5e+02]
Presolve removed 226578 rows and 269614 columns
Presolve time: 0.34s
Presolved: 19499 rows, 39020 columns, 109247 nonzeros

Iteration    Objective       Primal Inf.    Dual Inf.      Time
       0   -5.8771364e+28   1.818300e+34   7.703280e+03      0s
   16359   -6.4844656e+03   0.000000e+00   0.000000e+00      1s

Solved in 16359 iterations and 0.54 seconds
Optimal objective -6.484465595e+03
status: OPTIMAL
